p cnf 200 1220
1 2 3 4 5 0
6 7 8 9 10 0
11 12 13 14 15 0
16 17 18 19 20 0
21 22 23 24 25 0
26 27 28 29 30 0
31 32 33 34 35 0
36 37 38 39 40 0
41 42 43 44 45 0
46 47 48 49 50 0
51 52 53 54 55 0
56 57 58 59 60 0
61 62 63 64 65 0
66 67 68 69 70 0
71 72 73 74 75 0
76 77 78 79 80 0
81 82 83 84 85 0
86 87 88 89 90 0
91 92 93 94 95 0
96 97 98 99 100 0
101 102 103 104 105 0
106 107 108 109 110 0
111 112 113 114 115 0
116 117 118 119 120 0
121 122 123 124 125 0
126 127 128 129 130 0
131 132 133 134 135 0
136 137 138 139 140 0
141 142 143 144 145 0
146 147 148 149 150 0
151 152 153 154 155 0
156 157 158 159 160 0
161 162 163 164 165 0
166 167 168 169 170 0
171 172 173 174 175 0
176 177 178 179 180 0
181 182 183 184 185 0
186 187 188 189 190 0
191 192 193 194 195 0
196 197 198 199 200 0
-1 -2 0
-1 -3 0
-1 -4 0
-1 -5 0
-2 -3 0
-2 -4 0
-2 -5 0
-3 -4 0
-3 -5 0
-4 -5 0
-6 -7 0
-6 -8 0
-6 -9 0
-6 -10 0
-7 -8 0
-7 -9 0
-7 -10 0
-8 -9 0
-8 -10 0
-9 -10 0
-11 -12 0
-11 -13 0
-11 -14 0
-11 -15 0
-12 -13 0
-12 -14 0
-12 -15 0
-13 -14 0
-13 -15 0
-14 -15 0
-16 -17 0
-16 -18 0
-16 -19 0
-16 -20 0
-17 -18 0
-17 -19 0
-17 -20 0
-18 -19 0
-18 -20 0
-19 -20 0
-21 -22 0
-21 -23 0
-21 -24 0
-21 -25 0
-22 -23 0
-22 -24 0
-22 -25 0
-23 -24 0
-23 -25 0
-24 -25 0
-26 -27 0
-26 -28 0
-26 -29 0
-26 -30 0
-27 -28 0
-27 -29 0
-27 -30 0
-28 -29 0
-28 -30 0
-29 -30 0
-31 -32 0
-31 -33 0
-31 -34 0
-31 -35 0
-32 -33 0
-32 -34 0
-32 -35 0
-33 -34 0
-33 -35 0
-34 -35 0
-36 -37 0
-36 -38 0
-36 -39 0
-36 -40 0
-37 -38 0
-37 -39 0
-37 -40 0
-38 -39 0
-38 -40 0
-39 -40 0
-41 -42 0
-41 -43 0
-41 -44 0
-41 -45 0
-42 -43 0
-42 -44 0
-42 -45 0
-43 -44 0
-43 -45 0
-44 -45 0
-46 -47 0
-46 -48 0
-46 -49 0
-46 -50 0
-47 -48 0
-47 -49 0
-47 -50 0
-48 -49 0
-48 -50 0
-49 -50 0
-51 -52 0
-51 -53 0
-51 -54 0
-51 -55 0
-52 -53 0
-52 -54 0
-52 -55 0
-53 -54 0
-53 -55 0
-54 -55 0
-56 -57 0
-56 -58 0
-56 -59 0
-56 -60 0
-57 -58 0
-57 -59 0
-57 -60 0
-58 -59 0
-58 -60 0
-59 -60 0
-61 -62 0
-61 -63 0
-61 -64 0
-61 -65 0
-62 -63 0
-62 -64 0
-62 -65 0
-63 -64 0
-63 -65 0
-64 -65 0
-66 -67 0
-66 -68 0
-66 -69 0
-66 -70 0
-67 -68 0
-67 -69 0
-67 -70 0
-68 -69 0
-68 -70 0
-69 -70 0
-71 -72 0
-71 -73 0
-71 -74 0
-71 -75 0
-72 -73 0
-72 -74 0
-72 -75 0
-73 -74 0
-73 -75 0
-74 -75 0
-76 -77 0
-76 -78 0
-76 -79 0
-76 -80 0
-77 -78 0
-77 -79 0
-77 -80 0
-78 -79 0
-78 -80 0
-79 -80 0
-81 -82 0
-81 -83 0
-81 -84 0
-81 -85 0
-82 -83 0
-82 -84 0
-82 -85 0
-83 -84 0
-83 -85 0
-84 -85 0
-86 -87 0
-86 -88 0
-86 -89 0
-86 -90 0
-87 -88 0
-87 -89 0
-87 -90 0
-88 -89 0
-88 -90 0
-89 -90 0
-91 -92 0
-91 -93 0
-91 -94 0
-91 -95 0
-92 -93 0
-92 -94 0
-92 -95 0
-93 -94 0
-93 -95 0
-94 -95 0
-96 -97 0
-96 -98 0
-96 -99 0
-96 -100 0
-97 -98 0
-97 -99 0
-97 -100 0
-98 -99 0
-98 -100 0
-99 -100 0
-101 -102 0
-101 -103 0
-101 -104 0
-101 -105 0
-102 -103 0
-102 -104 0
-102 -105 0
-103 -104 0
-103 -105 0
-104 -105 0
-106 -107 0
-106 -108 0
-106 -109 0
-106 -110 0
-107 -108 0
-107 -109 0
-107 -110 0
-108 -109 0
-108 -110 0
-109 -110 0
-111 -112 0
-111 -113 0
-111 -114 0
-111 -115 0
-112 -113 0
-112 -114 0
-112 -115 0
-113 -114 0
-113 -115 0
-114 -115 0
-116 -117 0
-116 -118 0
-116 -119 0
-116 -120 0
-117 -118 0
-117 -119 0
-117 -120 0
-118 -119 0
-118 -120 0
-119 -120 0
-121 -122 0
-121 -123 0
-121 -124 0
-121 -125 0
-122 -123 0
-122 -124 0
-122 -125 0
-123 -124 0
-123 -125 0
-124 -125 0
-126 -127 0
-126 -128 0
-126 -129 0
-126 -130 0
-127 -128 0
-127 -129 0
-127 -130 0
-128 -129 0
-128 -130 0
-129 -130 0
-131 -132 0
-131 -133 0
-131 -134 0
-131 -135 0
-132 -133 0
-132 -134 0
-132 -135 0
-133 -134 0
-133 -135 0
-134 -135 0
-136 -137 0
-136 -138 0
-136 -139 0
-136 -140 0
-137 -138 0
-137 -139 0
-137 -140 0
-138 -139 0
-138 -140 0
-139 -140 0
-141 -142 0
-141 -143 0
-141 -144 0
-141 -145 0
-142 -143 0
-142 -144 0
-142 -145 0
-143 -144 0
-143 -145 0
-144 -145 0
-146 -147 0
-146 -148 0
-146 -149 0
-146 -150 0
-147 -148 0
-147 -149 0
-147 -150 0
-148 -149 0
-148 -150 0
-149 -150 0
-151 -152 0
-151 -153 0
-151 -154 0
-151 -155 0
-152 -153 0
-152 -154 0
-152 -155 0
-153 -154 0
-153 -155 0
-154 -155 0
-156 -157 0
-156 -158 0
-156 -159 0
-156 -160 0
-157 -158 0
-157 -159 0
-157 -160 0
-158 -159 0
-158 -160 0
-159 -160 0
-161 -162 0
-161 -163 0
-161 -164 0
-161 -165 0
-162 -163 0
-162 -164 0
-162 -165 0
-163 -164 0
-163 -165 0
-164 -165 0
-166 -167 0
-166 -168 0
-166 -169 0
-166 -170 0
-167 -168 0
-167 -169 0
-167 -170 0
-168 -169 0
-168 -170 0
-169 -170 0
-171 -172 0
-171 -173 0
-171 -174 0
-171 -175 0
-172 -173 0
-172 -174 0
-172 -175 0
-173 -174 0
-173 -175 0
-174 -175 0
-176 -177 0
-176 -178 0
-176 -179 0
-176 -180 0
-177 -178 0
-177 -179 0
-177 -180 0
-178 -179 0
-178 -180 0
-179 -180 0
-181 -182 0
-181 -183 0
-181 -184 0
-181 -185 0
-182 -183 0
-182 -184 0
-182 -185 0
-183 -184 0
-183 -185 0
-184 -185 0
-186 -187 0
-186 -188 0
-186 -189 0
-186 -190 0
-187 -188 0
-187 -189 0
-187 -190 0
-188 -189 0
-188 -190 0
-189 -190 0
-191 -192 0
-191 -193 0
-191 -194 0
-191 -195 0
-192 -193 0
-192 -194 0
-192 -195 0
-193 -194 0
-193 -195 0
-194 -195 0
-196 -197 0
-196 -198 0
-196 -199 0
-196 -200 0
-197 -198 0
-197 -199 0
-197 -200 0
-198 -199 0
-198 -200 0
-199 -200 0
-2 -9 0
-2 -10 0
-3 -12 0
-3 -14 0
-4 -17 0
-5 -20 0
-3 -36 0
-3 -40 0
-5 -42 0
-4 -42 0
-3 -50 0
-4 -47 0
-4 -52 0
-2 -54 0
-2 -56 0
-4 -56 0
-3 -63 0
-2 -65 0
-3 -68 0
-4 -67 0
-1 -82 0
-3 -81 0
-5 -93 0
-5 -92 0
-4 -113 0
-3 -114 0
-1 -119 0
-4 -118 0
-4 -124 0
-5 -123 0
-1 -128 0
-5 -129 0
-3 -133 0
-5 -133 0
-5 -142 0
-1 -145 0
-2 -149 0
-2 -150 0
-1 -157 0
-2 -159 0
-4 -164 0
-4 -162 0
-1 -182 0
-5 -184 0
-1 -190 0
-5 -188 0
-10 -28 0
-6 -27 0
-7 -33 0
-7 -34 0
-10 -39 0
-6 -40 0
-6 -72 0
-8 -71 0
-8 -80 0
-9 -76 0
-10 -94 0
-6 -94 0
-10 -98 0
-10 -100 0
-7 -120 0
-10 -120 0
-8 -123 0
-8 -121 0
-6 -126 0
-9 -130 0
-8 -138 0
-9 -138 0
-6 -145 0
-7 -143 0
-8 -152 0
-6 -155 0
-10 -159 0
-6 -159 0
-8 -169 0
-7 -169 0
-8 -171 0
-6 -174 0
-9 -180 0
-8 -177 0
-7 -190 0
-8 -186 0
-6 -196 0
-10 -197 0
-13 -38 0
-14 -39 0
-12 -51 0
-13 -52 0
-14 -56 0
-15 -58 0
-14 -90 0
-13 -88 0
-14 -111 0
-15 -115 0
-12 -125 0
-13 -121 0
-15 -128 0
-15 -129 0
-12 -143 0
-12 -141 0
-15 -147 0
-12 -147 0
-15 -163 0
-12 -163 0
-12 -169 0
-14 -169 0
-15 -185 0
-11 -185 0
-14 -189 0
-14 -190 0
-15 -199 0
-14 -199 0
-20 -22 0
-20 -21 0
-19 -27 0
-20 -29 0
-20 -35 0
-18 -35 0
-20 -50 0
-16 -49 0
-18 -53 0
-16 -51 0
-19 -59 0
-17 -60 0
-18 -68 0
-16 -69 0
-20 -75 0
-20 -73 0
-17 -91 0
-18 -92 0
-17 -104 0
-17 -103 0
-18 -110 0
-16 -107 0
-18 -114 0
-19 -113 0
-18 -120 0
-19 -117 0
-19 -122 0
-18 -125 0
-20 -129 0
-20 -130 0
-20 -138 0
-19 -136 0
-16 -149 0
-20 -149 0
-16 -159 0
-20 -158 0
-17 -173 0
-18 -174 0
-19 -180 0
-18 -176 0
-17 -184 0
-19 -182 0
-19 -186 0
-16 -187 0
-19 -193 0
-16 -193 0
-22 -28 0
-24 -30 0
-25 -34 0
-24 -31 0
-22 -37 0
-21 -38 0
-21 -47 0
-25 -49 0
-23 -60 0
-21 -59 0
-24 -78 0
-25 -79 0
-21 -88 0
-21 -86 0
-22 -120 0
-24 -117 0
-21 -128 0
-25 -126 0
-23 -134 0
-21 -134 0
-21 -155 0
-22 -152 0
-24 -159 0
-21 -158 0
-23 -165 0
-25 -164 0
-22 -168 0
-25 -170 0
-25 -175 0
-23 -174 0
-24 -183 0
-23 -185 0
-25 -187 0
-23 -190 0
-21 -192 0
-23 -193 0
-28 -31 0
-26 -31 0
-28 -42 0
-28 -41 0
-26 -52 0
-30 -51 0
-27 -75 0
-26 -71 0
-30 -88 0
-29 -88 0
-28 -106 0
-26 -106 0
-26 -115 0
-28 -113 0
-27 -153 0
-30 -152 0
-28 -167 0
-30 -169 0
-30 -183 0
-27 -183 0
-26 -188 0
-30 -188 0
-32 -38 0
-33 -36 0
-31 -41 0
-35 -44 0
-34 -51 0
-31 -51 0
-33 -78 0
-32 -79 0
-34 -89 0
-31 -88 0
-31 -93 0
-34 -91 0
-35 -100 0
-35 -98 0
-35 -117 0
-33 -120 0
-35 -121 0
-32 -121 0
-32 -128 0
-32 -127 0
-31 -131 0
-31 -135 0
-35 -144 0
-31 -143 0
-31 -163 0
-32 -161 0
-33 -166 0
-35 -168 0
-32 -177 0
-34 -180 0
-31 -185 0
-31 -183 0
-38 -60 0
-36 -58 0
-39 -64 0
-36 -62 0
-40 -69 0
-38 -68 0
-40 -75 0
-39 -74 0
-36 -85 0
-37 -84 0
-38 -90 0
-40 -89 0
-38 -95 0
-40 -94 0
-37 -109 0
-39 -106 0
-37 -113 0
-40 -112 0
-37 -117 0
-37 -119 0
-37 -128 0
-38 -127 0
-40 -150 0
-37 -146 0
-39 -154 0
-38 -151 0
-36 -157 0
-36 -159 0
-37 -161 0
-40 -162 0
-38 -169 0
-36 -167 0
-38 -180 0
-39 -180 0
-38 -196 0
-39 -200 0
-43 -47 0
-44 -46 0
-44 -51 0
-42 -52 0
-43 -67 0
-45 -67 0
-42 -73 0
-42 -75 0
-42 -77 0
-42 -78 0
-41 -94 0
-45 -92 0
-45 -103 0
-44 -102 0
-41 -112 0
-41 -113 0
-42 -122 0
-44 -125 0
-43 -126 0
-45 -130 0
-43 -134 0
-42 -132 0
-43 -142 0
-41 -142 0
-42 -169 0
-43 -170 0
-41 -177 0
-43 -179 0
-42 -186 0
-42 -187 0
-46 -54 0
-48 -54 0
-48 -89 0
-46 -90 0
-46 -100 0
-46 -97 0
-47 -105 0
-48 -103 0
-50 -120 0
-48 -118 0
-49 -125 0
-49 -123 0
-49 -128 0
-46 -128 0
-49 -139 0
-46 -137 0
-47 -145 0
-47 -144 0
-50 -151 0
-47 -155 0
-49 -158 0
-50 -156 0
-49 -169 0
-50 -169 0
-48 -177 0
-50 -177 0
-50 -184 0
-46 -183 0
-46 -188 0
-48 -187 0
-46 -195 0
-48 -192 0
-47 -199 0
-50 -198 0
-55 -56 0
-54 -57 0
-51 -61 0
-52 -62 0
-54 -70 0
-51 -70 0
-52 -74 0
-52 -72 0
-55 -85 0
-53 -85 0
-53 -86 0
-54 -87 0
-53 -92 0
-55 -93 0
-52 -99 0
-54 -97 0
-52 -107 0
-55 -110 0
-51 -120 0
-54 -118 0
-52 -132 0
-51 -135 0
-51 -163 0
-54 -164 0
-51 -175 0
-51 -172 0
-52 -177 0
-52 -180 0
-55 -182 0
-55 -184 0
-54 -195 0
-53 -194 0
-52 -198 0
-55 -196 0
-59 -88 0
-59 -89 0
-57 -96 0
-56 -99 0
-58 -127 0
-60 -128 0
-57 -157 0
-59 -158 0
-57 -161 0
-60 -164 0
-56 -171 0
-58 -174 0
-56 -193 0
-56 -195 0
-60 -198 0
-57 -199 0
-61 -73 0
-61 -72 0
-64 -82 0
-64 -84 0
-63 -94 0
-61 -94 0
-65 -114 0
-65 -112 0
-65 -119 0
-61 -117 0
-61 -129 0
-61 -128 0
-65 -135 0
-62 -131 0
-63 -146 0
-64 -148 0
-63 -157 0
-61 -156 0
-61 -164 0
-63 -164 0
-64 -185 0
-63 -183 0
-70 -78 0
-66 -78 0
-69 -90 0
-67 -88 0
-68 -94 0
-69 -95 0
-68 -100 0
-68 -96 0
-67 -109 0
-67 -107 0
-68 -113 0
-69 -112 0
-70 -117 0
-69 -117 0
-68 -123 0
-68 -125 0
-68 -132 0
-68 -135 0
-67 -136 0
-69 -138 0
-66 -144 0
-66 -141 0
-68 -152 0
-68 -154 0
-69 -156 0
-70 -157 0
-69 -169 0
-67 -169 0
-69 -176 0
-69 -178 0
-66 -181 0
-69 -182 0
-68 -191 0
-66 -191 0
-75 -77 0
-72 -76 0
-73 -88 0
-74 -88 0
-72 -92 0
-71 -94 0
-71 -103 0
-75 -101 0
-71 -118 0
-75 -118 0
-74 -127 0
-73 -129 0
-74 -137 0
-75 -138 0
-75 -154 0
-74 -153 0
-72 -157 0
-71 -159 0
-75 -168 0
-73 -170 0
-73 -180 0
-71 -176 0
-75 -182 0
-73 -181 0
-74 -188 0
-71 -189 0
-75 -194 0
-75 -191 0
-73 -197 0
-74 -200 0
-79 -90 0
-76 -86 0
-77 -103 0
-78 -103 0
-76 -108 0
-78 -106 0
-77 -120 0
-80 -119 0
-80 -135 0
-76 -132 0
-77 -138 0
-80 -138 0
-79 -144 0
-78 -145 0
-79 -149 0
-79 -147 0
-76 -155 0
-80 -154 0
-80 -159 0
-77 -158 0
-80 -164 0
-78 -164 0
-78 -177 0
-76 -176 0
-78 -184 0
-79 -184 0
-80 -199 0
-79 -198 0
-82 -86 0
-84 -86 0
-84 -95 0
-82 -91 0
-83 -107 0
-84 -107 0
-81 -113 0
-81 -111 0
-85 -149 0
-81 -146 0
-81 -168 0
-85 -168 0
-89 -92 0
-89 -94 0
-90 -99 0
-88 -99 0
-86 -104 0
-88 -101 0
-86 -109 0
-90 -108 0
-88 -120 0
-87 -117 0
-86 -125 0
-87 -125 0
-87 -135 0
-90 -134 0
-89 -147 0
-90 -147 0
-87 -152 0
-88 -155 0
-89 -158 0
-87 -160 0
-86 -183 0
-89 -185 0
-89 -193 0
-86 -191 0
-93 -97 0
-94 -100 0
-93 -104 0
-92 -104 0
-95 -110 0
-93 -106 0
-95 -123 0
-93 -125 0
-95 -135 0
-91 -135 0
-92 -140 0
-95 -136 0
-94 -141 0
-95 -145 0
-93 -157 0
-95 -160 0
-94 -162 0
-92 -163 0
-91 -171 0
-91 -173 0
-91 -179 0
-94 -177 0
-92 -184 0
-93 -181 0
-94 -195 0
-94 -193 0
-91 -199 0
-95 -196 0
-98 -110 0
-100 -110 0
-96 -119 0
-98 -118 0
-98 -125 0
-99 -125 0
-96 -133 0
-98 -135 0
-98 -147 0
-100 -146 0
-98 -160 0
-97 -158 0
-99 -170 0
-100 -170 0
-100 -185 0
-96 -184 0
-99 -187 0
-100 -190 0
-99 -198 0
-100 -196 0
-104 -111 0
-101 -114 0
-102 -120 0
-101 -119 0
-105 -141 0
-101 -141 0
-102 -177 0
-103 -179 0
-104 -188 0
-105 -188 0
-102 -191 0
-102 -192 0
-108 -115 0
-109 -113 0
-110 -116 0
-109 -118 0
-106 -125 0
-109 -125 0
-109 -138 0
-106 -138 0
-107 -144 0
-108 -144 0
-108 -147 0
-110 -146 0
-108 -163 0
-110 -163 0
-108 -186 0
-110 -186 0
-106 -197 0
-109 -197 0
-111 -120 0
-113 -117 0
-113 -125 0
-114 -125 0
-112 -133 0
-113 -133 0
-111 -145 0
-113 -141 0
-111 -148 0
-115 -149 0
-113 -153 0
-111 -154 0
-111 -160 0
-112 -160 0
-112 -164 0
-114 -164 0
-111 -184 0
-112 -182 0
-115 -193 0
-112 -193 0
-116 -122 0
-118 -125 0
-120 -134 0
-118 -134 0
-117 -140 0
-116 -137 0
-116 -141 0
-118 -144 0
-118 -156 0
-119 -157 0
-119 -175 0
-119 -172 0
-119 -179 0
-116 -180 0
-125 -132 0
-122 -132 0
-122 -137 0
-122 -136 0
-123 -143 0
-122 -145 0
-122 -149 0
-125 -147 0
-121 -157 0
-121 -160 0
-124 -174 0
-121 -174 0
-125 -182 0
-125 -181 0
-122 -187 0
-122 -189 0
-126 -133 0
-127 -134 0
-126 -152 0
-128 -152 0
-126 -158 0
-130 -158 0
-127 -165 0
-126 -165 0
-127 -185 0
-129 -184 0
-130 -193 0
-126 -192 0
-129 -198 0
-129 -199 0
-131 -142 0
-135 -144 0
-133 -146 0
-134 -147 0
-134 -155 0
-134 -152 0
-131 -162 0
-132 -163 0
-133 -167 0
-131 -170 0
-133 -183 0
-134 -185 0
-135 -189 0
-133 -189 0
-135 -198 0
-134 -196 0
-139 -142 0
-139 -143 0
-139 -152 0
-140 -152 0
-137 -157 0
-139 -159 0
-137 -169 0
-139 -169 0
-138 -172 0
-136 -174 0
-137 -186 0
-139 -188 0
-137 -191 0
-136 -195 0
-140 -197 0
-136 -199 0
-142 -164 0
-141 -164 0
-143 -174 0
-144 -171 0
-145 -178 0
-144 -178 0
-147 -152 0
-150 -155 0
-148 -161 0
-148 -162 0
-148 -184 0
-146 -181 0
-146 -186 0
-149 -186 0
-146 -196 0
-146 -200 0
-152 -157 0
-154 -157 0
-153 -165 0
-152 -165 0
-155 -183 0
-154 -185 0
-151 -189 0
-153 -190 0
-152 -193 0
-153 -194 0
-152 -200 0
-154 -199 0
-160 -161 0
-157 -165 0
-156 -176 0
-156 -177 0
-158 -182 0
-156 -184 0
-160 -194 0
-157 -195 0
-161 -185 0
-162 -181 0
-161 -195 0
-165 -195 0
-163 -198 0
-163 -197 0
-168 -185 0
-169 -184 0
-166 -197 0
-169 -198 0
-173 -180 0
-173 -178 0
-171 -199 0
-174 -197 0
-176 -181 0
-177 -184 0
-184 -191 0
-181 -191 0
-181 -200 0
-185 -200 0
-193 -199 0
-191 -200 0
